p cnf 7230 16
-6433 -6545 -6645 0
6429 6537 -6643 0
6427 6543 -6641 0
6433 -6646 0
-6429 -6644 0
-6427 -6642 0
6647 6648 0
6547 -6648 0
-6547 -6647 0
6645 6646 0
6643 6644 0
6641 6642 0
6545 -6646 0
-6537 -6644 0
-6543 -6642 0
6549 -6650 0
